(set-logic QF_LRA)
(declare-fun X0 () Real )
(declare-fun Y0 () Real )
(declare-fun X1 () Real )
(declare-fun Y1 () Real )
(declare-fun X2 () Real )
(declare-fun Y2 () Real )
(declare-fun X3 () Real )
(declare-fun Y3 () Real )
(declare-fun X4 () Real )
(declare-fun Y4 () Real )
(declare-fun X5 () Real )
(declare-fun Y5 () Real )
(declare-fun Z () Real )
(declare-fun k () Real )
(assert (let
(( $goal (>= Z k) ))
(let
((
$phi ( and 
( or ( <= ( + X0 84 ) X1 )  ( <= ( + X1 10 ) X0 )  ( <= ( + Y0 10 ) Y1 )  ( <= ( + Y1 5 ) Y0 )  )
( or ( <= ( + X0 84 ) X2 )  ( <= ( + X2 17 ) X0 )  ( <= ( + Y0 10 ) Y2 )  ( <= ( + Y2 12 ) Y0 )  )
( or ( <= ( + X0 84 ) X3 )  ( <= ( + X3 85 ) X0 )  ( <= ( + Y0 10 ) Y3 )  ( <= ( + Y3 100 ) Y0 )  )
( or ( <= ( + X0 84 ) X4 )  ( <= ( + X4 86 ) X0 )  ( <= ( + Y0 10 ) Y4 )  ( <= ( + Y4 55 ) Y0 )  )
( or ( <= ( + X0 84 ) X5 )  ( <= ( + X5 59 ) X0 )  ( <= ( + Y0 10 ) Y5 )  ( <= ( + Y5 95 ) Y0 )  )
( or ( <= ( + X1 10 ) X2 )  ( <= ( + X2 17 ) X1 )  ( <= ( + Y1 5 ) Y2 )  ( <= ( + Y2 12 ) Y1 )  )
( or ( <= ( + X1 10 ) X3 )  ( <= ( + X3 85 ) X1 )  ( <= ( + Y1 5 ) Y3 )  ( <= ( + Y3 100 ) Y1 )  )
( or ( <= ( + X1 10 ) X4 )  ( <= ( + X4 86 ) X1 )  ( <= ( + Y1 5 ) Y4 )  ( <= ( + Y4 55 ) Y1 )  )
( or ( <= ( + X1 10 ) X5 )  ( <= ( + X5 59 ) X1 )  ( <= ( + Y1 5 ) Y5 )  ( <= ( + Y5 95 ) Y1 )  )
( or ( <= ( + X2 17 ) X3 )  ( <= ( + X3 85 ) X2 )  ( <= ( + Y2 12 ) Y3 )  ( <= ( + Y3 100 ) Y2 )  )
( or ( <= ( + X2 17 ) X4 )  ( <= ( + X4 86 ) X2 )  ( <= ( + Y2 12 ) Y4 )  ( <= ( + Y4 55 ) Y2 )  )
( or ( <= ( + X2 17 ) X5 )  ( <= ( + X5 59 ) X2 )  ( <= ( + Y2 12 ) Y5 )  ( <= ( + Y5 95 ) Y2 )  )
( or ( <= ( + X3 85 ) X4 )  ( <= ( + X4 86 ) X3 )  ( <= ( + Y3 100 ) Y4 )  ( <= ( + Y4 55 ) Y3 )  )
( or ( <= ( + X3 85 ) X5 )  ( <= ( + X5 59 ) X3 )  ( <= ( + Y3 100 ) Y5 )  ( <= ( + Y5 95 ) Y3 )  )
( or ( <= ( + X4 86 ) X5 )  ( <= ( + X5 59 ) X4 )  ( <= ( + Y4 55 ) Y5 )  ( <= ( + Y5 95 ) Y4 )  )
( >= X0 0)
( <= ( + X0 84) Z)
( >= Y0 0)
( <= ( + Y0 10 ) 100)
( >= X1 0)
( <= ( + X1 10) Z)
( >= Y1 0)
( <= ( + Y1 5 ) 100)
( >= X2 0)
( <= ( + X2 17) Z)
( >= Y2 0)
( <= ( + Y2 12 ) 100)
( >= X3 0)
( <= ( + X3 85) Z)
( >= Y3 0)
( <= ( + Y3 100 ) 100)
( >= X4 0)
( <= ( + X4 86) Z)
( >= Y4 0)
( <= ( + Y4 55 ) 100)
( >= X5 0)
( <= ( + X5 59) Z)
( >= Y5 0)
( <= ( + Y5 95 ) 100)
) )
)(=> $phi $goal))))